-474.0 5.0 0.0 7.0 6.0 2.0 6.0 9.0 8.0 8.0 2.0 1.0 0.0 0.0 9.0 10.0 5.0 3.0 5.0 10.0 4.0 8.0 4.0 9.0 5.0 0.0 3.0 2.0 6.0 9.0 3.0 3.0 1.0 5.0 3.0 6.0 10.0 10.0 10.0 0.0 7.0 4.0 10.0 1.0 2.0 4.0 10.0 6.0 4.0 1.0 1.0 8.0 1.0 6.0 6.0 2.0 5.0 4.0 5.0 10.0 9.0 4.0 10.0 10.0 0.0 8.0 0.0 2.0 4.0 5.0 8.0 9.0 1.0 7.0 6.0 10.0 6.0 10.0 2.0 10.0 1.0 2.0 5.0 0.0 4.0 4.0 2.0 5.0 6.0 3.0 3.0 4.0 10.0 7.0 3.0 0.0 
5.0 -496.0 3.0 9.0 6.0 3.0 4.0 3.0 4.0 8.0 1.0 6.0 9.0 8.0 9.0 9.0 9.0 4.0 1.0 9.0 9.0 6.0 7.0 9.0 1.0 5.0 4.0 8.0 3.0 3.0 5.0 6.0 8.0 5.0 4.0 8.0 6.0 9.0 8.0 2.0 7.0 9.0 10.0 8.0 9.0 10.0 7.0 5.0 4.0 4.0 6.0 6.0 10.0 4.0 4.0 1.0 6.0 6.0 6.0 1.0 3.0 10.0 4.0 8.0 8.0 5.0 2.0 5.0 6.0 9.0 8.0 1.0 7.0 9.0 5.0 6.0 6.0 3.0 2.0 6.0 9.0 10.0 1.0 7.0 7.0 0.0 0.0 0.0 0.0 0.0 0.0 0.0 0.0 0.0 0.0 0.0 
0.0 3.0 -493.0 2.0 5.0 10.0 9.0 0.0 2.0 2.0 2.0 4.0 3.0 2.0 9.0 3.0 8.0 2.0 10.0 4.0 6.0 5.0 6.0 6.0 4.0 10.0 10.0 10.0 8.0 10.0 1.0 10.0 9.0 5.0 2.0 9.0 8.0 0.0 1.0 10.0 7.0 8.0 0.0 5.0 9.0 0.0 6.0 4.0 3.0 8.0 2.0 6.0 8.0 6.0 9.0 1.0 9.0 3.0 2.0 3.0 4.0 4.0 2.0 9.0 8.0 4.0 8.0 4.0 3.0 2.0 9.0 10.0 4.0 0.0 5.0 5.0 3.0 0.0 10.0 7.0 1.0 1.0 2.0 7.0 4.0 10.0 7.0 4.0 7.0 4.0 7.0 4.0 1.0 10.0 4.0 10.0 
7.0 9.0 2.0 -518.0 4.0 1.0 7.0 3.0 4.0 1.0 10.0 8.0 5.0 4.0 7.0 1.0 5.0 5.0 8.0 4.0 0.0 3.0 10.0 7.0 7.0 8.0 0.0 8.0 4.0 10.0 0.0 3.0 3.0 5.0 7.0 10.0 5.0 10.0 5.0 10.0 9.0 7.0 10.0 10.0 1.0 1.0 8.0 0.0 0.0 5.0 9.0 6.0 0.0 8.0 9.0 1.0 3.0 9.0 6.0 8.0 3.0 7.0 3.0 10.0 5.0 4.0 0.0 0.0 7.0 7.0 5.0 9.0 10.0 10.0 5.0 2.0 0.0 6.0 2.0 4.0 10.0 6.0 4.0 6.0 8.0 7.0 2.0 1.0 5.0 10.0 7.0 9.0 7.0 4.0 8.0 5.0 
6.0 6.0 5.0 4.0 -483.0 1.0 3.0 7.0 3.0 2.0 9.0 2.0 2.0 10.0 3.0 7.0 0.0 3.0 10.0 2.0 9.0 10.0 1.0 10.0 2.0 10.0 1.0 4.0 5.0 5.0 8.0 4.0 1.0 9.0 6.0 7.0 9.0 2.0 3.0 5.0 9.0 0.0 6.0 6.0 1.0 0.0 6.0 10.0 10.0 5.0 9.0 2.0 5.0 10.0 7.0 9.0 3.0 10.0 2.0 5.0 6.0 2.0 9.0 9.0 9.0 7.0 10.0 0.0 4.0 4.0 2.0 6.0 6.0 4.0 0.0 9.0 2.0 1.0 0.0 0.0 1.0 9.0 2.0 0.0 4.0 8.0 6.0 7.0 2.0 4.0 0.0 6.0 10.0 8.0 10.0 5.0 
2.0 3.0 10.0 1.0 1.0 -453.0 5.0 1.0 9.0 1.0 0.0 0.0 5.0 7.0 1.0 1.0 10.0 1.0 4.0 6.0 8.0 8.0 0.0 5.0 7.0 8.0 9.0 1.0 5.0 2.0 7.0 8.0 3.0 10.0 2.0 4.0 1.0 3.0 10.0 5.0 6.0 7.0 2.0 3.0 4.0 3.0 1.0 9.0 2.0 4.0 4.0 7.0 4.0 5.0 0.0 3.0 6.0 8.0 8.0 6.0 6.0 4.0 5.0 5.0 10.0 1.0 2.0 7.0 5.0 1.0 8.0 7.0 6.0 7.0 0.0 4.0 3.0 3.0 3.0 5.0 9.0 10.0 6.0 0.0 9.0 6.0 2.0 5.0 5.0 6.0 8.0 8.0 9.0 6.0 4.0 2.0 
6.0 4.0 9.0 7.0 3.0 5.0 -510.0 7.0 9.0 9.0 0.0 10.0 1.0 2.0 8.0 7.0 4.0 0.0 8.0 4.0 10.0 2.0 9.0 6.0 4.0 10.0 7.0 7.0 4.0 0.0 3.0 6.0 7.0 1.0 4.0 2.0 5.0 9.0 3.0 10.0 5.0 2.0 4.0 7.0 9.0 4.0 10.0 4.0 8.0 9.0 5.0 0.0 6.0 3.0 2.0 7.0 5.0 1.0 8.0 1.0 0.0 3.0 5.0 3.0 8.0 5.0 8.0 0.0 6.0 5.0 9.0 7.0 7.0 8.0 7.0 3.0 6.0 8.0 7.0 4.0 3.0 7.0 7.0 9.0 0.0 10.0 1.0 6.0 0.0 8.0 10.0 1.0 6.0 9.0 4.0 8.0 
9.0 3.0 0.0 3.0 7.0 1.0 7.0 -496.0 1.0 9.0 1.0 2.0 4.0 5.0 9.0 8.0 10.0 8.0 5.0 0.0 10.0 10.0 1.0 3.0 7.0 4.0 3.0 5.0 10.0 0.0 8.0 10.0 0.0 7.0 6.0 9.0 1.0 10.0 8.0 2.0 6.0 3.0 0.0 7.0 4.0 6.0 5.0 4.0 3.0 9.0 7.0 2.0 9.0 2.0 10.0 1.0 7.0 5.0 10.0 4.0 10.0 7.0 10.0 1.0 8.0 10.0 10.0 9.0 5.0 9.0 4.0 3.0 0.0 0.0 9.0 3.0 1.0 8.0 5.0 0.0 5.0 7.0 3.0 0.0 1.0 4.0 2.0 7.0 0.0 9.0 3.0 4.0 5.0 5.0 9.0 10.0 
8.0 4.0 2.0 4.0 3.0 9.0 9.0 1.0 -460.0 1.0 4.0 5.0 9.0 4.0 9.0 8.0 3.0 0.0 0.0 10.0 5.0 7.0 1.0 8.0 0.0 7.0 0.0 4.0 9.0 8.0 7.0 2.0 4.0 0.0 10.0 4.0 3.0 4.0 5.0 8.0 8.0 9.0 6.0 2.0 3.0 0.0 9.0 4.0 0.0 1.0 9.0 9.0 4.0 6.0 2.0 4.0 3.0 9.0 0.0 8.0 4.0 10.0 9.0 10.0 9.0 6.0 4.0 3.0 5.0 1.0 3.0 9.0 6.0 2.0 5.0 7.0 9.0 5.0 2.0 10.0 3.0 2.0 5.0 9.0 0.0 0.0 9.0 3.0 3.0 0.0 4.0 2.0 5.0 3.0 0.0 8.0 
8.0 8.0 2.0 1.0 2.0 1.0 9.0 9.0 1.0 -470.0 2.0 4.0 1.0 3.0 1.0 1.0 3.0 0.0 0.0 1.0 10.0 6.0 9.0 3.0 8.0 5.0 4.0 1.0 3.0 5.0 2.0 8.0 4.0 7.0 0.0 10.0 5.0 8.0 0.0 6.0 4.0 3.0 5.0 7.0 5.0 4.0 9.0 5.0 8.0 2.0 5.0 0.0 7.0 6.0 9.0 7.0 10.0 9.0 9.0 3.0 2.0 0.0 3.0 3.0 10.0 3.0 4.0 10.0 10.0 5.0 9.0 10.0 10.0 5.0 4.0 7.0 10.0 1.0 3.0 10.0 4.0 3.0 1.0 3.0 4.0 1.0 9.0 7.0 7.0 6.0 8.0 4.0 1.0 2.0 4.0 9.0 
2.0 1.0 2.0 10.0 9.0 0.0 0.0 1.0 4.0 2.0 -502.0 2.0 4.0 8.0 10.0 3.0 7.0 5.0 10.0 5.0 4.0 8.0 10.0 4.0 5.0 10.0 7.0 8.0 9.0 10.0 4.0 0.0 10.0 2.0 1.0 3.0 6.0 8.0 2.0 7.0 6.0 4.0 10.0 9.0 2.0 8.0 6.0 2.0 2.0 5.0 2.0 9.0 8.0 10.0 6.0 8.0 9.0 6.0 1.0 10.0 8.0 4.0 9.0 6.0 3.0 9.0 1.0 1.0 0.0 9.0 2.0 10.0 7.0 10.0 9.0 7.0 9.0 0.0 0.0 5.0 9.0 3.0 9.0 2.0 9.0 2.0 1.0 1.0 1.0 7.0 1.0 1.0 10.0 3.0 1.0 7.0 
1.0 6.0 4.0 8.0 2.0 0.0 10.0 2.0 5.0 4.0 2.0 -435.0 3.0 8.0 5.0 0.0 1.0 5.0 0.0 10.0 1.0 1.0 9.0 2.0 4.0 0.0 2.0 5.0 1.0 7.0 6.0 8.0 2.0 3.0 0.0 7.0 5.0 6.0 9.0 9.0 1.0 2.0 1.0 8.0 6.0 3.0 5.0 8.0 1.0 5.0 0.0 9.0 1.0 10.0 10.0 4.0 1.0 5.0 4.0 0.0 3.0 2.0 7.0 3.0 5.0 0.0 9.0 6.0 8.0 5.0 10.0 10.0 0.0 5.0 0.0 9.0 4.0 8.0 2.0 9.0 5.0 2.0 9.0 2.0 5.0 4.0 5.0 2.0 8.0 7.0 4.0 9.0 4.0 7.0 5.0 5.0 
0.0 9.0 3.0 5.0 2.0 5.0 1.0 4.0 9.0 1.0 4.0 3.0 -438.0 7.0 2.0 6.0 0.0 7.0 6.0 4.0 7.0 3.0 3.0 8.0 3.0 1.0 4.0 3.0 3.0 0.0 9.0 8.0 1.0 8.0 1.0 5.0 9.0 8.0 5.0 9.0 4.0 7.0 0.0 7.0 6.0 8.0 8.0 3.0 2.0 9.0 6.0 4.0 9.0 4.0 0.0 10.0 8.0 8.0 1.0 6.0 9.0 1.0 3.0 1.0 6.0 6.0 6.0 1.0 9.0 10.0 2.0 1.0 4.0 0.0 3.0 0.0 2.0 3.0 9.0 6.0 0.0 0.0 10.0 7.0 1.0 3.0 4.0 5.0 10.0 4.0 3.0 5.0 0.0 0.0 10.0 8.0 
0.0 8.0 2.0 4.0 10.0 7.0 2.0 5.0 4.0 3.0 8.0 8.0 7.0 -485.0 9.0 6.0 5.0 4.0 3.0 0.0 2.0 1.0 3.0 3.0 7.0 6.0 4.0 8.0 2.0 5.0 9.0 6.0 7.0 1.0 5.0 10.0 4.0 0.0 0.0 7.0 9.0 10.0 1.0 8.0 6.0 8.0 1.0 10.0 9.0 7.0 3.0 7.0 0.0 5.0 0.0 6.0 0.0 5.0 10.0 10.0 2.0 4.0 3.0 1.0 4.0 6.0 2.0 2.0 9.0 4.0 0.0 7.0 5.0 8.0 6.0 9.0 10.0 5.0 2.0 8.0 9.0 6.0 10.0 1.0 8.0 4.0 2.0 8.0 4.0 7.0 2.0 4.0 6.0 8.0 9.0 0.0 
9.0 9.0 9.0 7.0 3.0 1.0 8.0 9.0 9.0 1.0 10.0 5.0 2.0 9.0 -515.0 1.0 5.0 9.0 9.0 4.0 9.0 2.0 10.0 10.0 2.0 4.0 6.0 6.0 0.0 8.0 8.0 2.0 3.0 8.0 10.0 10.0 9.0 0.0 9.0 8.0 9.0 9.0 9.0 1.0 1.0 7.0 6.0 5.0 0.0 0.0 5.0 4.0 2.0 8.0 1.0 0.0 1.0 5.0 7.0 10.0 8.0 0.0 10.0 1.0 9.0 2.0 0.0 1.0 8.0 0.0 10.0 10.0 8.0 10.0 9.0 9.0 0.0 3.0 5.0 0.0 10.0 4.0 9.0 8.0 1.0 7.0 5.0 5.0 10.0 4.0 3.0 0.0 7.0 4.0 1.0 1.0 
10.0 9.0 3.0 1.0 7.0 1.0 7.0 8.0 8.0 1.0 3.0 0.0 6.0 6.0 1.0 -454.0 9.0 6.0 4.0 1.0 9.0 10.0 7.0 3.0 8.0 8.0 9.0 0.0 0.0 7.0 7.0 0.0 1.0 3.0 9.0 10.0 2.0 1.0 3.0 8.0 3.0 6.0 3.0 7.0 0.0 5.0 9.0 10.0 0.0 0.0 7.0 6.0 1.0 2.0 4.0 7.0 1.0 2.0 1.0 9.0 5.0 3.0 5.0 2.0 5.0 9.0 0.0 9.0 6.0 8.0 4.0 6.0 3.0 1.0 10.0 2.0 4.0 0.0 2.0 8.0 4.0 0.0 2.0 7.0 6.0 5.0 5.0 0.0 3.0 6.0 10.0 2.0 7.0 9.0 7.0 10.0 
5.0 9.0 8.0 5.0 0.0 10.0 4.0 10.0 3.0 3.0 7.0 1.0 0.0 5.0 5.0 9.0 -450.0 1.0 9.0 4.0 4.0 8.0 0.0 10.0 4.0 4.0 1.0 10.0 4.0 6.0 10.0 1.0 8.0 1.0 7.0 4.0 9.0 1.0 6.0 0.0 3.0 10.0 6.0 8.0 0.0 3.0 10.0 0.0 9.0 5.0 0.0 2.0 7.0 2.0 0.0 9.0 10.0 0.0 3.0 9.0 5.0 4.0 8.0 0.0 1.0 0.0 6.0 10.0 1.0 1.0 4.0 7.0 2.0 6.0 1.0 6.0 5.0 5.0 0.0 2.0 1.0 2.0 8.0 9.0 7.0 8.0 0.0 4.0 8.0 1.0 7.0 0.0 8.0 6.0 9.0 6.0 
3.0 4.0 2.0 5.0 3.0 1.0 0.0 8.0 0.0 0.0 5.0 5.0 7.0 4.0 9.0 6.0 1.0 -483.0 3.0 8.0 3.0 2.0 5.0 10.0 3.0 10.0 2.0 6.0 1.0 2.0 9.0 10.0 8.0 0.0 4.0 3.0 8.0 9.0 8.0 4.0 5.0 8.0 2.0 8.0 10.0 1.0 10.0 9.0 8.0 9.0 8.0 7.0 9.0 4.0 4.0 2.0 10.0 6.0 6.0 5.0 7.0 10.0 1.0 10.0 2.0 6.0 4.0 5.0 0.0 5.0 0.0 10.0 1.0 6.0 4.0 4.0 5.0 3.0 4.0 1.0 0.0 6.0 7.0 10.0 4.0 6.0 1.0 8.0 7.0 2.0 6.0 6.0 6.0 3.0 6.0 5.0 
5.0 1.0 10.0 8.0 10.0 4.0 8.0 5.0 0.0 0.0 10.0 0.0 6.0 3.0 9.0 4.0 9.0 3.0 -500.0 0.0 2.0 1.0 5.0 2.0 3.0 10.0 10.0 9.0 5.0 10.0 7.0 1.0 7.0 0.0 1.0 9.0 1.0 9.0 6.0 7.0 8.0 0.0 3.0 9.0 2.0 9.0 10.0 2.0 6.0 9.0 8.0 7.0 5.0 8.0 2.0 7.0 9.0 5.0 2.0 10.0 9.0 4.0 1.0 10.0 3.0 5.0 3.0 2.0 2.0 0.0 2.0 8.0 3.0 0.0 2.0 7.0 8.0 4.0 4.0 8.0 9.0 9.0 3.0 0.0 4.0 5.0 10.0 0.0 7.0 8.0 7.0 9.0 7.0 6.0 5.0 5.0 
10.0 9.0 4.0 4.0 2.0 6.0 4.0 0.0 10.0 1.0 5.0 10.0 4.0 0.0 4.0 1.0 4.0 8.0 0.0 -454.0 0.0 6.0 6.0 1.0 4.0 9.0 7.0 1.0 6.0 1.0 8.0 9.0 8.0 0.0 10.0 10.0 0.0 10.0 8.0 2.0 2.0 2.0 9.0 7.0 0.0 5.0 1.0 3.0 0.0 5.0 6.0 7.0 6.0 1.0 2.0 5.0 7.0 2.0 2.0 7.0 3.0 2.0 3.0 2.0 10.0 1.0 7.0 1.0 7.0 6.0 6.0 7.0 4.0 5.0 7.0 10.0 7.0 8.0 9.0 5.0 10.0 8.0 5.0 2.0 2.0 8.0 0.0 3.0 1.0 4.0 4.0 1.0 7.0 7.0 8.0 3.0 
4.0 9.0 6.0 0.0 9.0 8.0 10.0 10.0 5.0 10.0 4.0 1.0 7.0 2.0 9.0 9.0 4.0 3.0 2.0 0.0 -483.0 10.0 7.0 1.0 5.0 3.0 6.0 4.0 0.0 5.0 10.0 6.0 7.0 5.0 0.0 0.0 9.0 6.0 2.0 6.0 10.0 2.0 4.0 0.0 1.0 3.0 8.0 2.0 0.0 3.0 0.0 4.0 0.0 8.0 2.0 1.0 9.0 9.0 5.0 1.0 2.0 3.0 3.0 9.0 10.0 8.0 6.0 0.0 3.0 1.0 6.0 7.0 8.0 6.0 4.0 4.0 7.0 2.0 4.0 7.0 9.0 6.0 8.0 8.0 8.0 5.0 4.0 9.0 5.0 10.0 8.0 5.0 3.0 4.0 8.0 7.0 
8.0 6.0 5.0 3.0 10.0 8.0 2.0 10.0 7.0 6.0 8.0 1.0 3.0 1.0 2.0 10.0 8.0 2.0 1.0 6.0 10.0 -451.0 0.0 7.0 5.0 4.0 7.0 0.0 3.0 4.0 1.0 9.0 0.0 4.0 2.0 10.0 4.0 8.0 5.0 4.0 1.0 7.0 1.0 7.0 5.0 2.0 2.0 1.0 10.0 1.0 6.0 3.0 6.0 2.0 4.0 4.0 3.0 4.0 6.0 8.0 3.0 6.0 4.0 0.0 6.0 4.0 5.0 10.0 2.0 4.0 6.0 7.0 10.0 7.0 2.0 2.0 1.0 3.0 10.0 3.0 6.0 4.0 5.0 1.0 3.0 3.0 10.0 5.0 3.0 6.0 9.0 8.0 1.0 5.0 4.0 6.0 
4.0 7.0 6.0 10.0 1.0 0.0 9.0 1.0 1.0 9.0 10.0 9.0 3.0 3.0 10.0 7.0 0.0 5.0 5.0 6.0 7.0 0.0 -509.0 4.0 6.0 10.0 5.0 7.0 9.0 4.0 0.0 10.0 0.0 4.0 9.0 0.0 10.0 7.0 7.0 10.0 0.0 8.0 1.0 10.0 7.0 7.0 10.0 6.0 9.0 8.0 7.0 7.0 6.0 8.0 0.0 7.0 5.0 6.0 9.0 3.0 2.0 8.0 4.0 0.0 0.0 6.0 10.0 8.0 7.0 8.0 9.0 0.0 8.0 7.0 10.0 1.0 5.0 6.0 6.0 7.0 0.0 3.0 1.0 9.0 7.0 2.0 0.0 3.0 2.0 3.0 8.0 8.0 5.0 3.0 1.0 3.0 
9.0 9.0 6.0 7.0 10.0 5.0 6.0 3.0 8.0 3.0 4.0 2.0 8.0 3.0 10.0 3.0 10.0 10.0 2.0 1.0 1.0 7.0 4.0 -510.0 7.0 2.0 7.0 7.0 10.0 3.0 8.0 3.0 2.0 2.0 10.0 7.0 0.0 7.0 8.0 4.0 3.0 6.0 2.0 0.0 5.0 7.0 10.0 2.0 8.0 5.0 8.0 9.0 2.0 10.0 4.0 0.0 3.0 4.0 10.0 9.0 5.0 8.0 5.0 6.0 10.0 2.0 5.0 9.0 7.0 8.0 4.0 8.0 6.0 8.0 8.0 2.0 1.0 2.0 8.0 2.0 9.0 6.0 5.0 4.0 0.0 4.0 2.0 6.0 10.0 2.0 5.0 5.0 5.0 6.0 1.0 1.0 
5.0 1.0 4.0 7.0 2.0 7.0 4.0 7.0 0.0 8.0 5.0 4.0 3.0 7.0 2.0 8.0 4.0 3.0 3.0 4.0 5.0 5.0 6.0 7.0 -466.0 5.0 4.0 6.0 8.0 9.0 2.0 10.0 7.0 3.0 3.0 1.0 4.0 0.0 8.0 6.0 2.0 4.0 0.0 2.0 7.0 6.0 8.0 0.0 8.0 10.0 2.0 2.0 3.0 9.0 8.0 7.0 7.0 3.0 6.0 6.0 0.0 2.0 9.0 7.0 9.0 4.0 9.0 2.0 2.0 3.0 6.0 0.0 3.0 7.0 4.0 8.0 8.0 9.0 3.0 8.0 3.0 10.0 4.0 10.0 6.0 4.0 2.0 4.0 6.0 1.0 9.0 1.0 4.0 4.0 2.0 6.0 
0.0 5.0 10.0 8.0 10.0 8.0 10.0 4.0 7.0 5.0 10.0 0.0 1.0 6.0 4.0 8.0 4.0 10.0 10.0 9.0 3.0 4.0 10.0 2.0 5.0 -487.0 2.0 4.0 1.0 4.0 0.0 2.0 5.0 8.0 9.0 2.0 4.0 6.0 2.0 2.0 5.0 4.0 10.0 9.0 3.0 1.0 8.0 1.0 9.0 1.0 7.0 3.0 1.0 5.0 8.0 1.0 7.0 6.0 2.0 3.0 0.0 6.0 10.0 0.0 3.0 7.0 5.0 4.0 10.0 1.0 6.0 4.0 0.0 1.0 8.0 6.0 10.0 6.0 3.0 8.0 3.0 7.0 5.0 7.0 5.0 2.0 10.0 0.0 9.0 4.0 9.0 10.0 8.0 2.0 8.0 2.0 
3.0 4.0 10.0 0.0 1.0 9.0 7.0 3.0 0.0 4.0 7.0 2.0 4.0 4.0 6.0 9.0 1.0 2.0 10.0 7.0 6.0 7.0 5.0 7.0 4.0 2.0 -441.0 10.0 1.0 5.0 2.0 2.0 4.0 8.0 1.0 4.0 9.0 7.0 5.0 3.0 10.0 0.0 8.0 0.0 6.0 6.0 2.0 7.0 3.0 1.0 3.0 0.0 4.0 1.0 3.0 7.0 8.0 2.0 10.0 5.0 8.0 6.0 1.0 0.0 7.0 7.0 2.0 6.0 0.0 6.0 0.0 1.0 0.0 6.0 8.0 3.0 10.0 3.0 6.0 5.0 0.0 7.0 3.0 0.0 5.0 1.0 6.0 5.0 8.0 6.0 6.0 9.0 9.0 4.0 8.0 8.0 
2.0 8.0 10.0 8.0 4.0 1.0 7.0 5.0 4.0 1.0 8.0 5.0 3.0 8.0 6.0 0.0 10.0 6.0 9.0 1.0 4.0 0.0 7.0 7.0 6.0 4.0 10.0 -508.0 0.0 0.0 9.0 0.0 5.0 0.0 9.0 9.0 5.0 3.0 10.0 1.0 8.0 9.0 1.0 0.0 4.0 1.0 5.0 3.0 4.0 0.0 8.0 7.0 5.0 7.0 9.0 8.0 3.0 10.0 9.0 3.0 9.0 10.0 7.0 9.0 2.0 0.0 8.0 4.0 7.0 5.0 5.0 6.0 7.0 2.0 4.0 5.0 9.0 5.0 3.0 6.0 10.0 9.0 7.0 1.0 9.0 4.0 2.0 1.0 3.0 10.0 9.0 9.0 10.0 5.0 5.0 2.0 
6.0 3.0 8.0 4.0 5.0 5.0 4.0 10.0 9.0 3.0 9.0 1.0 3.0 2.0 0.0 0.0 4.0 1.0 5.0 6.0 0.0 3.0 9.0 10.0 8.0 1.0 1.0 0.0 -456.0 5.0 0.0 2.0 8.0 0.0 2.0 4.0 10.0 3.0 9.0 6.0 0.0 8.0 6.0 7.0 2.0 0.0 3.0 6.0 9.0 1.0 3.0 7.0 6.0 4.0 0.0 9.0 5.0 3.0 5.0 2.0 3.0 5.0 10.0 9.0 9.0 2.0 5.0 1.0 7.0 1.0 5.0 10.0 1.0 4.0 9.0 10.0 4.0 4.0 8.0 5.0 1.0 6.0 8.0 5.0 10.0 2.0 6.0 8.0 6.0 5.0 10.0 8.0 2.0 2.0 8.0 2.0 
9.0 3.0 10.0 10.0 5.0 2.0 0.0 0.0 8.0 5.0 10.0 7.0 0.0 5.0 8.0 7.0 6.0 2.0 10.0 1.0 5.0 4.0 4.0 3.0 9.0 4.0 5.0 0.0 5.0 -488.0 4.0 4.0 4.0 8.0 8.0 7.0 10.0 0.0 9.0 6.0 1.0 4.0 2.0 6.0 9.0 2.0 0.0 0.0 4.0 9.0 5.0 6.0 0.0 9.0 4.0 2.0 10.0 5.0 2.0 4.0 1.0 9.0 1.0 4.0 4.0 7.0 2.0 8.0 9.0 2.0 3.0 4.0 1.0 7.0 2.0 8.0 9.0 10.0 1.0 7.0 9.0 5.0 10.0 6.0 9.0 9.0 3.0 6.0 10.0 6.0 5.0 0.0 8.0 3.0 7.0 2.0 
3.0 5.0 1.0 0.0 8.0 7.0 3.0 8.0 7.0 2.0 4.0 6.0 9.0 9.0 8.0 7.0 10.0 9.0 7.0 8.0 10.0 1.0 0.0 8.0 2.0 0.0 2.0 9.0 0.0 4.0 -485.0 4.0 4.0 9.0 4.0 2.0 5.0 9.0 4.0 2.0 3.0 7.0 3.0 2.0 6.0 5.0 3.0 8.0 1.0 2.0 2.0 7.0 6.0 9.0 5.0 1.0 2.0 0.0 0.0 9.0 7.0 10.0 10.0 0.0 9.0 3.0 3.0 8.0 3.0 4.0 6.0 10.0 1.0 7.0 8.0 2.0 6.0 2.0 2.0 7.0 2.0 6.0 5.0 7.0 10.0 9.0 2.0 1.0 5.0 0.0 4.0 10.0 7.0 9.0 10.0 9.0 
3.0 6.0 10.0 3.0 4.0 8.0 6.0 10.0 2.0 8.0 0.0 8.0 8.0 6.0 2.0 0.0 1.0 10.0 1.0 9.0 6.0 9.0 10.0 3.0 10.0 2.0 2.0 0.0 2.0 4.0 4.0 -475.0 4.0 0.0 2.0 5.0 5.0 9.0 1.0 10.0 5.0 8.0 8.0 0.0 9.0 0.0 6.0 2.0 3.0 0.0 5.0 6.0 2.0 4.0 10.0 6.0 9.0 6.0 9.0 7.0 10.0 4.0 4.0 3.0 6.0 6.0 5.0 4.0 5.0 0.0 10.0 7.0 10.0 1.0 4.0 5.0 7.0 3.0 4.0 0.0 2.0 3.0 4.0 10.0 7.0 7.0 0.0 7.0 4.0 3.0 4.0 10.0 8.0 6.0 0.0 4.0 
1.0 8.0 9.0 3.0 1.0 3.0 7.0 0.0 4.0 4.0 10.0 2.0 1.0 7.0 3.0 1.0 8.0 8.0 7.0 8.0 7.0 0.0 0.0 2.0 7.0 5.0 4.0 5.0 8.0 4.0 4.0 4.0 -413.0 2.0 1.0 9.0 3.0 9.0 0.0 1.0 5.0 1.0 1.0 1.0 0.0 3.0 4.0 3.0 5.0 3.0 1.0 5.0 4.0 3.0 9.0 1.0 5.0 8.0 9.0 6.0 7.0 3.0 1.0 7.0 3.0 7.0 4.0 5.0 8.0 9.0 0.0 0.0 4.0 2.0 9.0 4.0 2.0 5.0 5.0 10.0 0.0 4.0 0.0 5.0 7.0 3.0 1.0 9.0 4.0 10.0 2.0 5.0 8.0 7.0 3.0 3.0 
5.0 5.0 5.0 5.0 9.0 10.0 1.0 7.0 0.0 7.0 2.0 3.0 8.0 1.0 8.0 3.0 1.0 0.0 0.0 0.0 5.0 4.0 4.0 2.0 3.0 8.0 8.0 0.0 0.0 8.0 9.0 0.0 2.0 -450.0 9.0 10.0 9.0 4.0 6.0 3.0 6.0 8.0 0.0 4.0 5.0 2.0 6.0 6.0 8.0 6.0 2.0 2.0 9.0 4.0 6.0 0.0 9.0 2.0 2.0 9.0 0.0 9.0 7.0 0.0 7.0 2.0 3.0 2.0 6.0 1.0 7.0 6.0 6.0 9.0 2.0 3.0 3.0 2.0 4.0 6.0 4.0 3.0 8.0 5.0 4.0 6.0 7.0 4.0 6.0 9.0 3.0 9.0 7.0 7.0 8.0 5.0 
3.0 4.0 2.0 7.0 6.0 2.0 4.0 6.0 10.0 0.0 1.0 0.0 1.0 5.0 10.0 9.0 7.0 4.0 1.0 10.0 0.0 2.0 9.0 10.0 3.0 9.0 1.0 9.0 2.0 8.0 4.0 2.0 1.0 9.0 -504.0 8.0 6.0 10.0 5.0 10.0 10.0 6.0 7.0 2.0 6.0 9.0 6.0 3.0 9.0 4.0 5.0 8.0 5.0 6.0 2.0 5.0 9.0 10.0 0.0 1.0 0.0 6.0 10.0 10.0 1.0 5.0 4.0 10.0 4.0 8.0 6.0 6.0 9.0 6.0 2.0 6.0 8.0 10.0 10.0 4.0 1.0 3.0 3.0 1.0 5.0 2.0 6.0 10.0 10.0 2.0 2.0 10.0 4.0 2.0 5.0 0.0 
6.0 8.0 9.0 10.0 7.0 4.0 2.0 9.0 4.0 10.0 3.0 7.0 5.0 10.0 10.0 10.0 4.0 3.0 9.0 10.0 0.0 10.0 0.0 7.0 1.0 2.0 4.0 9.0 4.0 7.0 2.0 5.0 9.0 10.0 8.0 -510.0 1.0 5.0 2.0 7.0 1.0 3.0 4.0 3.0 8.0 5.0 9.0 0.0 4.0 5.0 5.0 6.0 3.0 3.0 2.0 1.0 9.0 2.0 8.0 4.0 7.0 2.0 5.0 5.0 8.0 0.0 1.0 7.0 3.0 2.0 10.0 4.0 6.0 8.0 4.0 8.0 10.0 8.0 3.0 2.0 1.0 8.0 3.0 4.0 0.0 7.0 9.0 7.0 7.0 2.0 7.0 3.0 7.0 9.0 10.0 5.0 
10.0 6.0 8.0 5.0 9.0 1.0 5.0 1.0 3.0 5.0 6.0 5.0 9.0 4.0 9.0 2.0 9.0 8.0 1.0 0.0 9.0 4.0 10.0 0.0 4.0 4.0 9.0 5.0 10.0 10.0 5.0 5.0 3.0 9.0 6.0 1.0 -503.0 10.0 5.0 10.0 5.0 0.0 2.0 6.0 3.0 8.0 9.0 5.0 9.0 3.0 4.0 1.0 1.0 8.0 3.0 0.0 5.0 0.0 7.0 0.0 6.0 2.0 3.0 9.0 7.0 1.0 5.0 3.0 0.0 0.0 4.0 7.0 7.0 6.0 10.0 6.0 7.0 8.0 7.0 4.0 6.0 4.0 4.0 6.0 10.0 1.0 9.0 7.0 4.0 7.0 4.0 7.0 4.0 8.0 9.0 7.0 
10.0 9.0 0.0 10.0 2.0 3.0 9.0 10.0 4.0 8.0 8.0 6.0 8.0 0.0 0.0 1.0 1.0 9.0 9.0 10.0 6.0 8.0 7.0 7.0 0.0 6.0 7.0 3.0 3.0 0.0 9.0 9.0 9.0 4.0 10.0 5.0 10.0 -475.0 1.0 9.0 8.0 3.0 0.0 5.0 1.0 10.0 6.0 10.0 9.0 7.0 2.0 1.0 5.0 0.0 3.0 2.0 7.0 3.0 1.0 4.0 5.0 5.0 1.0 7.0 9.0 0.0 1.0 4.0 4.0 2.0 9.0 0.0 5.0 5.0 0.0 4.0 8.0 5.0 0.0 1.0 2.0 2.0 8.0 2.0 6.0 10.0 7.0 10.0 5.0 2.0 1.0 8.0 3.0 3.0 10.0 4.0 
10.0 8.0 1.0 5.0 3.0 10.0 3.0 8.0 5.0 0.0 2.0 9.0 5.0 0.0 9.0 3.0 6.0 8.0 6.0 8.0 2.0 5.0 7.0 8.0 8.0 2.0 5.0 10.0 9.0 9.0 4.0 1.0 0.0 6.0 5.0 2.0 5.0 1.0 -517.0 0.0 4.0 5.0 2.0 9.0 9.0 1.0 9.0 7.0 10.0 10.0 4.0 1.0 9.0 10.0 7.0 9.0 3.0 7.0 10.0 1.0 3.0 7.0 5.0 7.0 3.0 9.0 5.0 6.0 1.0 6.0 0.0 4.0 2.0 8.0 3.0 9.0 1.0 7.0 3.0 4.0 5.0 2.0 4.0 9.0 4.0 0.0 8.0 8.0 10.0 5.0 9.0 6.0 6.0 8.0 7.0 8.0 
0.0 2.0 10.0 10.0 5.0 5.0 10.0 2.0 8.0 6.0 7.0 9.0 9.0 7.0 8.0 8.0 0.0 4.0 7.0 2.0 6.0 4.0 10.0 4.0 6.0 2.0 3.0 1.0 6.0 6.0 2.0 10.0 1.0 3.0 10.0 7.0 10.0 9.0 0.0 -513.0 8.0 10.0 8.0 0.0 1.0 1.0 1.0 8.0 2.0 6.0 9.0 9.0 10.0 8.0 6.0 7.0 5.0 0.0 5.0 4.0 0.0 9.0 8.0 4.0 3.0 4.0 6.0 4.0 5.0 8.0 10.0 3.0 2.0 0.0 5.0 1.0 10.0 5.0 8.0 7.0 2.0 2.0 0.0 3.0 2.0 5.0 10.0 10.0 10.0 10.0 2.0 4.0 7.0 8.0 4.0 5.0 
7.0 7.0 7.0 9.0 9.0 6.0 5.0 6.0 8.0 4.0 6.0 1.0 4.0 9.0 9.0 3.0 3.0 5.0 8.0 2.0 10.0 1.0 0.0 3.0 2.0 5.0 10.0 8.0 0.0 1.0 3.0 5.0 5.0 6.0 10.0 1.0 5.0 8.0 4.0 8.0 -496.0 4.0 1.0 6.0 10.0 9.0 3.0 10.0 10.0 5.0 7.0 9.0 1.0 4.0 2.0 5.0 9.0 7.0 7.0 1.0 5.0 10.0 6.0 7.0 0.0 0.0 4.0 6.0 3.0 4.0 2.0 2.0 1.0 8.0 4.0 7.0 10.0 9.0 10.0 6.0 8.0 1.0 3.0 6.0 6.0 6.0 4.0 0.0 8.0 1.0 1.0 2.0 9.0 2.0 3.0 9.0 
4.0 9.0 8.0 7.0 0.0 7.0 2.0 3.0 9.0 3.0 4.0 2.0 7.0 10.0 9.0 6.0 10.0 8.0 0.0 2.0 2.0 7.0 8.0 6.0 4.0 4.0 0.0 9.0 8.0 4.0 7.0 8.0 1.0 8.0 6.0 3.0 0.0 3.0 5.0 10.0 4.0 -474.0 5.0 1.0 2.0 4.0 8.0 2.0 2.0 6.0 0.0 0.0 2.0 9.0 2.0 1.0 9.0 5.0 6.0 9.0 8.0 0.0 4.0 10.0 8.0 10.0 6.0 4.0 8.0 9.0 5.0 7.0 1.0 9.0 0.0 7.0 2.0 2.0 2.0 7.0 6.0 3.0 6.0 3.0 7.0 0.0 1.0 8.0 7.0 4.0 5.0 6.0 1.0 8.0 1.0 9.0 
10.0 10.0 0.0 10.0 6.0 2.0 4.0 0.0 6.0 5.0 10.0 1.0 0.0 1.0 9.0 3.0 6.0 2.0 3.0 9.0 4.0 1.0 1.0 2.0 0.0 10.0 8.0 1.0 6.0 2.0 3.0 8.0 1.0 0.0 7.0 4.0 2.0 0.0 2.0 8.0 1.0 5.0 -418.0 4.0 5.0 4.0 6.0 9.0 4.0 9.0 7.0 2.0 3.0 4.0 9.0 0.0 5.0 10.0 0.0 2.0 1.0 5.0 6.0 2.0 8.0 3.0 4.0 1.0 2.0 3.0 10.0 3.0 3.0 0.0 8.0 3.0 3.0 0.0 4.0 0.0 8.0 2.0 1.0 10.0 10.0 4.0 2.0 10.0 7.0 7.0 4.0 5.0 6.0 7.0 10.0 0.0 
1.0 8.0 5.0 10.0 6.0 3.0 7.0 7.0 2.0 7.0 9.0 8.0 7.0 8.0 1.0 7.0 8.0 8.0 9.0 7.0 0.0 7.0 10.0 0.0 2.0 9.0 0.0 0.0 7.0 6.0 2.0 0.0 1.0 4.0 2.0 3.0 6.0 5.0 9.0 0.0 6.0 1.0 4.0 -474.0 9.0 9.0 8.0 0.0 5.0 9.0 2.0 10.0 0.0 5.0 1.0 0.0 10.0 0.0 6.0 8.0 10.0 6.0 9.0 9.0 2.0 7.0 0.0 9.0 1.0 2.0 10.0 1.0 9.0 7.0 1.0 8.0 6.0 4.0 0.0 4.0 2.0 8.0 6.0 4.0 8.0 9.0 4.0 5.0 4.0 4.0 5.0 5.0 3.0 3.0 0.0 5.0 
2.0 9.0 9.0 1.0 1.0 4.0 9.0 4.0 3.0 5.0 2.0 6.0 6.0 6.0 1.0 0.0 0.0 10.0 2.0 0.0 1.0 5.0 7.0 5.0 7.0 3.0 6.0 4.0 2.0 9.0 6.0 9.0 0.0 5.0 6.0 8.0 3.0 1.0 9.0 1.0 10.0 2.0 5.0 9.0 -499.0 4.0 6.0 9.0 6.0 6.0 9.0 7.0 9.0 8.0 5.0 5.0 9.0 10.0 7.0 5.0 10.0 4.0 5.0 4.0 9.0 10.0 1.0 4.0 0.0 5.0 2.0 9.0 1.0 10.0 8.0 5.0 3.0 8.0 8.0 10.0 1.0 6.0 1.0 1.0 4.0 2.0 6.0 7.0 6.0 7.0 9.0 8.0 5.0 0.0 7.0 5.0 
4.0 10.0 0.0 1.0 0.0 3.0 4.0 6.0 0.0 4.0 8.0 3.0 8.0 8.0 7.0 5.0 3.0 1.0 9.0 5.0 3.0 2.0 7.0 7.0 6.0 1.0 6.0 1.0 0.0 2.0 5.0 0.0 3.0 2.0 9.0 5.0 8.0 10.0 1.0 1.0 9.0 4.0 4.0 9.0 4.0 -436.0 10.0 5.0 0.0 4.0 7.0 1.0 1.0 10.0 10.0 1.0 9.0 1.0 6.0 2.0 3.0 1.0 3.0 5.0 1.0 10.0 9.0 5.0 6.0 8.0 2.0 2.0 0.0 9.0 0.0 2.0 4.0 2.0 9.0 6.0 7.0 5.0 4.0 6.0 0.0 5.0 2.0 9.0 8.0 0.0 10.0 9.0 8.0 7.0 3.0 1.0 
10.0 7.0 6.0 8.0 6.0 1.0 10.0 5.0 9.0 9.0 6.0 5.0 8.0 1.0 6.0 9.0 10.0 10.0 10.0 1.0 8.0 2.0 10.0 10.0 8.0 8.0 2.0 5.0 3.0 0.0 3.0 6.0 4.0 6.0 6.0 9.0 9.0 6.0 9.0 1.0 3.0 8.0 6.0 8.0 6.0 10.0 -521.0 10.0 0.0 4.0 0.0 2.0 7.0 4.0 5.0 4.0 7.0 10.0 0.0 4.0 3.0 2.0 7.0 5.0 1.0 9.0 1.0 1.0 8.0 6.0 5.0 4.0 9.0 1.0 6.0 0.0 3.0 4.0 8.0 6.0 5.0 7.0 8.0 7.0 5.0 6.0 6.0 4.0 9.0 2.0 10.0 8.0 2.0 0.0 0.0 3.0 
6.0 5.0 4.0 0.0 10.0 9.0 4.0 4.0 4.0 5.0 2.0 8.0 3.0 10.0 5.0 10.0 0.0 9.0 2.0 3.0 2.0 1.0 6.0 2.0 0.0 1.0 7.0 3.0 6.0 0.0 8.0 2.0 3.0 6.0 3.0 0.0 5.0 10.0 7.0 8.0 10.0 2.0 9.0 0.0 9.0 5.0 10.0 -436.0 3.0 7.0 5.0 3.0 10.0 0.0 0.0 6.0 10.0 7.0 10.0 2.0 0.0 1.0 8.0 0.0 0.0 2.0 8.0 2.0 10.0 6.0 0.0 5.0 0.0 8.0 10.0 0.0 1.0 8.0 10.0 10.0 0.0 2.0 2.0 4.0 1.0 8.0 0.0 5.0 6.0 8.0 7.0 1.0 2.0 2.0 8.0 0.0 
4.0 4.0 3.0 0.0 10.0 2.0 8.0 3.0 0.0 8.0 2.0 1.0 2.0 9.0 0.0 0.0 9.0 8.0 6.0 0.0 0.0 10.0 9.0 8.0 8.0 9.0 3.0 4.0 9.0 4.0 1.0 3.0 5.0 8.0 9.0 4.0 9.0 9.0 10.0 2.0 10.0 2.0 4.0 5.0 6.0 0.0 0.0 3.0 -489.0 6.0 9.0 2.0 0.0 2.0 8.0 9.0 1.0 3.0 10.0 9.0 2.0 9.0 8.0 9.0 4.0 7.0 9.0 3.0 9.0 5.0 2.0 8.0 9.0 1.0 4.0 6.0 6.0 4.0 2.0 0.0 10.0 6.0 2.0 7.0 0.0 1.0 3.0 7.0 6.0 9.0 9.0 10.0 7.0 6.0 3.0 4.0 
1.0 4.0 8.0 5.0 5.0 4.0 9.0 9.0 1.0 2.0 5.0 5.0 9.0 7.0 0.0 0.0 5.0 9.0 9.0 5.0 3.0 1.0 8.0 5.0 10.0 1.0 1.0 0.0 1.0 9.0 2.0 0.0 3.0 6.0 4.0 5.0 3.0 7.0 10.0 6.0 5.0 6.0 9.0 9.0 6.0 4.0 4.0 7.0 6.0 -482.0 0.0 7.0 6.0 6.0 5.0 7.0 1.0 4.0 10.0 5.0 10.0 10.0 8.0 3.0 1.0 4.0 9.0 1.0 7.0 6.0 3.0 5.0 5.0 8.0 2.0 0.0 7.0 3.0 5.0 4.0 9.0 8.0 5.0 3.0 5.0 1.0 9.0 10.0 6.0 7.0 6.0 1.0 3.0 0.0 7.0 7.0 
1.0 6.0 2.0 9.0 9.0 4.0 5.0 7.0 9.0 5.0 2.0 0.0 6.0 3.0 5.0 7.0 0.0 8.0 8.0 6.0 0.0 6.0 7.0 8.0 2.0 7.0 3.0 8.0 3.0 5.0 2.0 5.0 1.0 2.0 5.0 5.0 4.0 2.0 4.0 9.0 7.0 0.0 7.0 2.0 9.0 7.0 0.0 5.0 9.0 0.0 -466.0 0.0 5.0 10.0 6.0 9.0 5.0 2.0 8.0 1.0 1.0 2.0 0.0 9.0 7.0 9.0 4.0 0.0 7.0 3.0 7.0 10.0 6.0 4.0 5.0 8.0 1.0 4.0 1.0 8.0 10.0 1.0 10.0 2.0 3.0 9.0 7.0 3.0 2.0 4.0 8.0 7.0 0.0 2.0 10.0 10.0 
8.0 6.0 6.0 6.0 2.0 7.0 0.0 2.0 9.0 0.0 9.0 9.0 4.0 7.0 4.0 6.0 2.0 7.0 7.0 7.0 4.0 3.0 7.0 9.0 2.0 3.0 0.0 7.0 7.0 6.0 7.0 6.0 5.0 2.0 8.0 6.0 1.0 1.0 1.0 9.0 9.0 0.0 2.0 10.0 7.0 1.0 2.0 3.0 2.0 7.0 0.0 -438.0 7.0 2.0 2.0 8.0 7.0 1.0 3.0 0.0 0.0 10.0 4.0 0.0 0.0 8.0 2.0 7.0 10.0 0.0 3.0 7.0 9.0 6.0 10.0 6.0 1.0 1.0 2.0 5.0 5.0 1.0 4.0 3.0 3.0 8.0 7.0 3.0 1.0 0.0 3.0 9.0 7.0 4.0 5.0 9.0 
1.0 10.0 8.0 0.0 5.0 4.0 6.0 9.0 4.0 7.0 8.0 1.0 9.0 0.0 2.0 1.0 7.0 9.0 5.0 6.0 0.0 6.0 6.0 2.0 3.0 1.0 4.0 5.0 6.0 0.0 6.0 2.0 4.0 9.0 5.0 3.0 1.0 5.0 9.0 10.0 1.0 2.0 3.0 0.0 9.0 1.0 7.0 10.0 0.0 6.0 5.0 7.0 -432.0 1.0 10.0 1.0 5.0 1.0 1.0 5.0 9.0 7.0 6.0 3.0 7.0 0.0 3.0 9.0 8.0 0.0 0.0 8.0 1.0 1.0 5.0 6.0 0.0 4.0 9.0 2.0 4.0 9.0 5.0 5.0 0.0 9.0 9.0 5.0 2.0 0.0 10.0 2.0 5.0 3.0 10.0 2.0 
6.0 4.0 6.0 8.0 10.0 5.0 3.0 2.0 6.0 6.0 10.0 10.0 4.0 5.0 8.0 2.0 2.0 4.0 8.0 1.0 8.0 2.0 8.0 10.0 9.0 5.0 1.0 7.0 4.0 9.0 9.0 4.0 3.0 4.0 6.0 3.0 8.0 0.0 10.0 8.0 4.0 9.0 4.0 5.0 8.0 10.0 4.0 0.0 2.0 6.0 10.0 2.0 1.0 -501.0 9.0 7.0 0.0 7.0 1.0 10.0 5.0 5.0 1.0 10.0 5.0 5.0 2.0 1.0 3.0 2.0 8.0 2.0 2.0 4.0 6.0 10.0 5.0 7.0 8.0 2.0 8.0 10.0 0.0 3.0 6.0 2.0 0.0 5.0 7.0 7.0 6.0 8.0 6.0 3.0 3.0 7.0 
6.0 4.0 9.0 9.0 7.0 0.0 2.0 10.0 2.0 9.0 6.0 10.0 0.0 0.0 1.0 4.0 0.0 4.0 2.0 2.0 2.0 4.0 0.0 4.0 8.0 8.0 3.0 9.0 0.0 4.0 5.0 10.0 9.0 6.0 2.0 2.0 3.0 3.0 7.0 6.0 2.0 2.0 9.0 1.0 5.0 10.0 5.0 0.0 8.0 5.0 6.0 2.0 10.0 9.0 -450.0 9.0 10.0 0.0 2.0 5.0 9.0 5.0 8.0 8.0 3.0 1.0 9.0 0.0 4.0 0.0 5.0 4.0 4.0 7.0 5.0 4.0 10.0 2.0 2.0 7.0 5.0 2.0 3.0 4.0 3.0 8.0 3.0 8.0 6.0 1.0 3.0 0.0 3.0 9.0 9.0 4.0 
2.0 1.0 1.0 1.0 9.0 3.0 7.0 1.0 4.0 7.0 8.0 4.0 10.0 6.0 0.0 7.0 9.0 2.0 7.0 5.0 1.0 4.0 7.0 0.0 7.0 1.0 7.0 8.0 9.0 2.0 1.0 6.0 1.0 0.0 5.0 1.0 0.0 2.0 9.0 7.0 5.0 1.0 0.0 0.0 5.0 1.0 4.0 6.0 9.0 7.0 9.0 8.0 1.0 7.0 9.0 -473.0 5.0 9.0 4.0 10.0 5.0 2.0 4.0 10.0 9.0 1.0 1.0 7.0 2.0 2.0 8.0 10.0 10.0 6.0 0.0 4.0 8.0 7.0 1.0 6.0 9.0 0.0 9.0 0.0 10.0 9.0 9.0 7.0 0.0 9.0 8.0 8.0 4.0 5.0 3.0 8.0 
5.0 6.0 9.0 3.0 3.0 6.0 5.0 7.0 3.0 10.0 9.0 1.0 8.0 0.0 1.0 1.0 10.0 10.0 9.0 7.0 9.0 3.0 5.0 3.0 7.0 7.0 8.0 3.0 5.0 10.0 2.0 9.0 5.0 9.0 9.0 9.0 5.0 7.0 3.0 5.0 9.0 9.0 5.0 10.0 9.0 9.0 7.0 10.0 1.0 1.0 5.0 7.0 5.0 0.0 10.0 5.0 -540.0 5.0 3.0 10.0 6.0 5.0 10.0 5.0 8.0 7.0 10.0 6.0 5.0 4.0 1.0 1.0 0.0 10.0 2.0 4.0 0.0 8.0 3.0 7.0 5.0 4.0 3.0 9.0 5.0 4.0 9.0 1.0 8.0 5.0 4.0 5.0 2.0 7.0 9.0 2.0 
4.0 6.0 3.0 9.0 10.0 8.0 1.0 5.0 9.0 9.0 6.0 5.0 8.0 5.0 5.0 2.0 0.0 6.0 5.0 2.0 9.0 4.0 6.0 4.0 3.0 6.0 2.0 10.0 3.0 5.0 0.0 6.0 8.0 2.0 10.0 2.0 0.0 3.0 7.0 0.0 7.0 5.0 10.0 0.0 10.0 1.0 10.0 7.0 3.0 4.0 2.0 1.0 1.0 7.0 0.0 9.0 5.0 -466.0 1.0 3.0 6.0 3.0 5.0 9.0 2.0 8.0 10.0 6.0 10.0 1.0 3.0 3.0 2.0 8.0 10.0 1.0 2.0 8.0 5.0 4.0 8.0 9.0 3.0 3.0 2.0 5.0 8.0 10.0 9.0 2.0 4.0 4.0 2.0 1.0 2.0 4.0 
5.0 6.0 2.0 6.0 2.0 8.0 8.0 10.0 0.0 9.0 1.0 4.0 1.0 10.0 7.0 1.0 3.0 6.0 2.0 2.0 5.0 6.0 9.0 10.0 6.0 2.0 10.0 9.0 5.0 2.0 0.0 9.0 9.0 2.0 0.0 8.0 7.0 1.0 10.0 5.0 7.0 6.0 0.0 6.0 7.0 6.0 0.0 10.0 10.0 10.0 8.0 3.0 1.0 1.0 2.0 4.0 3.0 1.0 -451.0 8.0 9.0 2.0 1.0 4.0 3.0 1.0 3.0 2.0 6.0 3.0 10.0 5.0 1.0 6.0 0.0 10.0 0.0 6.0 5.0 3.0 0.0 3.0 1.0 3.0 9.0 10.0 6.0 5.0 0.0 8.0 1.0 7.0 10.0 1.0 5.0 1.0 
10.0 1.0 3.0 8.0 5.0 6.0 1.0 4.0 8.0 3.0 10.0 0.0 6.0 10.0 10.0 9.0 9.0 5.0 10.0 7.0 1.0 8.0 3.0 9.0 6.0 3.0 5.0 3.0 2.0 4.0 9.0 7.0 6.0 9.0 1.0 4.0 0.0 4.0 1.0 4.0 1.0 9.0 2.0 8.0 5.0 2.0 4.0 2.0 9.0 5.0 1.0 0.0 5.0 10.0 5.0 10.0 10.0 3.0 8.0 -471.0 0.0 7.0 1.0 8.0 2.0 7.0 0.0 10.0 7.0 4.0 8.0 1.0 0.0 5.0 0.0 2.0 4.0 5.0 9.0 9.0 0.0 2.0 6.0 2.0 8.0 6.0 2.0 3.0 6.0 7.0 1.0 0.0 10.0 3.0 6.0 7.0 
9.0 3.0 4.0 3.0 6.0 6.0 0.0 10.0 4.0 2.0 8.0 3.0 9.0 2.0 8.0 5.0 5.0 7.0 9.0 3.0 2.0 3.0 2.0 5.0 0.0 0.0 8.0 9.0 3.0 1.0 7.0 10.0 7.0 0.0 0.0 7.0 6.0 5.0 3.0 0.0 5.0 8.0 1.0 10.0 10.0 3.0 3.0 0.0 2.0 10.0 1.0 0.0 9.0 5.0 9.0 5.0 6.0 6.0 9.0 0.0 -471.0 6.0 6.0 6.0 5.0 7.0 8.0 10.0 0.0 0.0 4.0 9.0 1.0 3.0 6.0 9.0 9.0 5.0 1.0 2.0 4.0 0.0 8.0 7.0 5.0 7.0 7.0 8.0 4.0 7.0 2.0 8.0 2.0 6.0 7.0 6.0 
4.0 10.0 4.0 7.0 2.0 4.0 3.0 7.0 10.0 0.0 4.0 2.0 1.0 4.0 0.0 3.0 4.0 10.0 4.0 2.0 3.0 6.0 8.0 8.0 2.0 6.0 6.0 10.0 5.0 9.0 10.0 4.0 3.0 9.0 6.0 2.0 2.0 5.0 7.0 9.0 10.0 0.0 5.0 6.0 4.0 1.0 2.0 1.0 9.0 10.0 2.0 10.0 7.0 5.0 5.0 2.0 5.0 3.0 2.0 7.0 6.0 -461.0 1.0 4.0 3.0 3.0 1.0 2.0 3.0 9.0 7.0 2.0 3.0 10.0 10.0 0.0 3.0 9.0 6.0 2.0 4.0 5.0 5.0 0.0 7.0 1.0 3.0 0.0 8.0 10.0 8.0 2.0 7.0 1.0 9.0 6.0 
10.0 4.0 2.0 3.0 9.0 5.0 5.0 10.0 9.0 3.0 9.0 7.0 3.0 3.0 10.0 5.0 8.0 1.0 1.0 3.0 3.0 4.0 4.0 5.0 9.0 10.0 1.0 7.0 10.0 1.0 10.0 4.0 1.0 7.0 10.0 5.0 3.0 1.0 5.0 8.0 6.0 4.0 6.0 9.0 5.0 3.0 7.0 8.0 8.0 8.0 0.0 4.0 6.0 1.0 8.0 4.0 10.0 5.0 1.0 1.0 6.0 1.0 -508.0 6.0 10.0 4.0 10.0 4.0 7.0 8.0 8.0 5.0 7.0 1.0 0.0 5.0 6.0 4.0 4.0 9.0 8.0 3.0 2.0 1.0 7.0 0.0 9.0 8.0 9.0 4.0 6.0 0.0 5.0 3.0 6.0 10.0 
10.0 8.0 9.0 10.0 9.0 5.0 3.0 1.0 10.0 3.0 6.0 3.0 1.0 1.0 1.0 2.0 0.0 10.0 10.0 2.0 9.0 0.0 0.0 6.0 7.0 0.0 0.0 9.0 9.0 4.0 0.0 3.0 7.0 0.0 10.0 5.0 9.0 7.0 7.0 4.0 7.0 10.0 2.0 9.0 4.0 5.0 5.0 0.0 9.0 3.0 9.0 0.0 3.0 10.0 8.0 10.0 5.0 9.0 4.0 8.0 6.0 4.0 6.0 -487.0 3.0 4.0 10.0 1.0 5.0 5.0 0.0 3.0 1.0 4.0 4.0 7.0 0.0 2.0 9.0 10.0 0.0 9.0 1.0 2.0 3.0 10.0 10.0 1.0 5.0 7.0 0.0 5.0 8.0 10.0 7.0 5.0 
0.0 8.0 8.0 5.0 9.0 10.0 8.0 8.0 9.0 10.0 3.0 5.0 6.0 4.0 9.0 5.0 1.0 2.0 3.0 10.0 10.0 6.0 0.0 10.0 9.0 3.0 7.0 2.0 9.0 4.0 9.0 6.0 3.0 7.0 1.0 8.0 7.0 9.0 3.0 3.0 0.0 8.0 8.0 2.0 9.0 1.0 1.0 0.0 4.0 1.0 7.0 0.0 7.0 5.0 3.0 9.0 8.0 2.0 3.0 2.0 5.0 3.0 10.0 3.0 -494.0 0.0 3.0 6.0 10.0 3.0 8.0 6.0 3.0 9.0 7.0 10.0 5.0 10.0 0.0 3.0 3.0 4.0 3.0 1.0 7.0 3.0 7.0 6.0 7.0 2.0 3.0 8.0 4.0 8.0 2.0 3.0 
8.0 5.0 4.0 4.0 7.0 1.0 5.0 10.0 6.0 3.0 9.0 0.0 6.0 6.0 2.0 9.0 0.0 6.0 5.0 1.0 8.0 4.0 6.0 2.0 4.0 7.0 7.0 0.0 2.0 7.0 3.0 6.0 7.0 2.0 5.0 0.0 1.0 0.0 9.0 4.0 0.0 10.0 3.0 7.0 10.0 10.0 9.0 2.0 7.0 4.0 9.0 8.0 0.0 5.0 1.0 1.0 7.0 8.0 1.0 7.0 7.0 3.0 4.0 4.0 0.0 -480.0 8.0 8.0 9.0 10.0 0.0 7.0 9.0 6.0 0.0 4.0 9.0 5.0 2.0 9.0 9.0 0.0 6.0 1.0 9.0 5.0 0.0 6.0 8.0 10.0 10.0 2.0 6.0 0.0 4.0 10.0 
0.0 2.0 8.0 0.0 10.0 2.0 8.0 10.0 4.0 4.0 1.0 9.0 6.0 2.0 0.0 0.0 6.0 4.0 3.0 7.0 6.0 5.0 10.0 5.0 9.0 5.0 2.0 8.0 5.0 2.0 3.0 5.0 4.0 3.0 4.0 1.0 5.0 1.0 5.0 6.0 4.0 6.0 4.0 0.0 1.0 9.0 1.0 8.0 9.0 9.0 4.0 2.0 3.0 2.0 9.0 1.0 10.0 10.0 3.0 0.0 8.0 1.0 10.0 10.0 3.0 8.0 -456.0 2.0 4.0 7.0 10.0 1.0 9.0 2.0 0.0 9.0 1.0 2.0 5.0 8.0 9.0 4.0 2.0 1.0 3.0 2.0 3.0 5.0 7.0 9.0 2.0 10.0 5.0 6.0 8.0 5.0 
2.0 5.0 4.0 0.0 0.0 7.0 0.0 9.0 3.0 10.0 1.0 6.0 1.0 2.0 1.0 9.0 10.0 5.0 2.0 1.0 0.0 10.0 8.0 9.0 2.0 4.0 6.0 4.0 1.0 8.0 8.0 4.0 5.0 2.0 10.0 7.0 3.0 4.0 6.0 4.0 6.0 4.0 1.0 9.0 4.0 5.0 1.0 2.0 3.0 1.0 0.0 7.0 9.0 1.0 0.0 7.0 6.0 6.0 2.0 10.0 10.0 2.0 4.0 1.0 6.0 8.0 2.0 -429.0 5.0 9.0 1.0 2.0 5.0 4.0 2.0 6.0 6.0 6.0 7.0 0.0 3.0 1.0 3.0 8.0 2.0 1.0 7.0 3.0 4.0 6.0 10.0 8.0 4.0 3.0 5.0 8.0 
4.0 6.0 3.0 7.0 4.0 5.0 6.0 5.0 5.0 10.0 0.0 8.0 9.0 9.0 8.0 6.0 1.0 0.0 2.0 7.0 3.0 2.0 7.0 7.0 2.0 10.0 0.0 7.0 7.0 9.0 3.0 5.0 8.0 6.0 4.0 3.0 0.0 4.0 1.0 5.0 3.0 8.0 2.0 1.0 0.0 6.0 8.0 10.0 9.0 7.0 7.0 10.0 8.0 3.0 4.0 2.0 5.0 10.0 6.0 7.0 0.0 3.0 7.0 5.0 10.0 9.0 4.0 5.0 -494.0 5.0 3.0 8.0 2.0 0.0 2.0 5.0 5.0 2.0 5.0 9.0 5.0 4.0 7.0 10.0 1.0 7.0 7.0 5.0 8.0 7.0 7.0 0.0 0.0 10.0 10.0 3.0 
5.0 9.0 2.0 7.0 4.0 1.0 5.0 9.0 1.0 5.0 9.0 5.0 10.0 4.0 0.0 8.0 1.0 5.0 0.0 6.0 1.0 4.0 8.0 8.0 3.0 1.0 6.0 5.0 1.0 2.0 4.0 0.0 9.0 1.0 8.0 2.0 0.0 2.0 6.0 8.0 4.0 9.0 3.0 2.0 5.0 8.0 6.0 6.0 5.0 6.0 3.0 0.0 0.0 2.0 0.0 2.0 4.0 1.0 3.0 4.0 0.0 9.0 8.0 5.0 3.0 10.0 7.0 9.0 5.0 -426.0 8.0 4.0 2.0 10.0 0.0 4.0 5.0 0.0 7.0 3.0 3.0 2.0 6.0 10.0 0.0 5.0 7.0 3.0 8.0 3.0 5.0 6.0 0.0 5.0 9.0 7.0 
8.0 8.0 9.0 5.0 2.0 8.0 9.0 4.0 3.0 9.0 2.0 10.0 2.0 0.0 10.0 4.0 4.0 0.0 2.0 6.0 6.0 6.0 9.0 4.0 6.0 6.0 0.0 5.0 5.0 3.0 6.0 10.0 0.0 7.0 6.0 10.0 4.0 9.0 0.0 10.0 2.0 5.0 10.0 10.0 2.0 2.0 5.0 0.0 2.0 3.0 7.0 3.0 0.0 8.0 5.0 8.0 1.0 3.0 10.0 8.0 4.0 7.0 8.0 0.0 8.0 0.0 10.0 1.0 3.0 8.0 -504.0 9.0 10.0 0.0 2.0 0.0 10.0 10.0 5.0 0.0 7.0 0.0 2.0 9.0 8.0 4.0 4.0 3.0 7.0 9.0 7.0 9.0 9.0 7.0 4.0 9.0 
9.0 1.0 10.0 9.0 6.0 7.0 7.0 3.0 9.0 10.0 10.0 10.0 1.0 7.0 10.0 6.0 7.0 10.0 8.0 7.0 7.0 7.0 0.0 8.0 0.0 4.0 1.0 6.0 10.0 4.0 10.0 7.0 0.0 6.0 6.0 4.0 7.0 0.0 4.0 3.0 2.0 7.0 3.0 1.0 9.0 2.0 4.0 5.0 8.0 5.0 10.0 7.0 8.0 2.0 4.0 10.0 1.0 3.0 5.0 1.0 9.0 2.0 5.0 3.0 6.0 7.0 1.0 2.0 8.0 4.0 9.0 -530.0 1.0 1.0 5.0 3.0 8.0 8.0 3.0 7.0 4.0 9.0 2.0 6.0 10.0 5.0 5.0 7.0 9.0 10.0 10.0 1.0 4.0 9.0 8.0 1.0 
1.0 7.0 4.0 10.0 6.0 6.0 7.0 0.0 6.0 10.0 7.0 0.0 4.0 5.0 8.0 3.0 2.0 1.0 3.0 4.0 8.0 10.0 8.0 6.0 3.0 0.0 0.0 7.0 1.0 1.0 1.0 10.0 4.0 6.0 9.0 6.0 7.0 5.0 2.0 2.0 1.0 1.0 3.0 9.0 1.0 0.0 9.0 0.0 9.0 5.0 6.0 9.0 1.0 2.0 4.0 10.0 0.0 2.0 1.0 0.0 1.0 3.0 7.0 1.0 3.0 9.0 9.0 5.0 2.0 2.0 10.0 1.0 -444.0 8.0 0.0 10.0 7.0 6.0 4.0 2.0 7.0 3.0 0.0 6.0 2.0 3.0 6.0 5.0 10.0 9.0 3.0 10.0 9.0 8.0 3.0 7.0 
7.0 9.0 0.0 10.0 4.0 7.0 8.0 0.0 2.0 5.0 10.0 5.0 0.0 8.0 10.0 1.0 6.0 6.0 0.0 5.0 6.0 7.0 7.0 8.0 7.0 1.0 6.0 2.0 4.0 7.0 7.0 1.0 2.0 9.0 6.0 8.0 6.0 5.0 8.0 0.0 8.0 9.0 0.0 7.0 10.0 9.0 1.0 8.0 1.0 8.0 4.0 6.0 1.0 4.0 7.0 6.0 10.0 8.0 6.0 5.0 3.0 10.0 1.0 4.0 9.0 6.0 2.0 4.0 0.0 10.0 0.0 1.0 8.0 -515.0 10.0 9.0 7.0 2.0 9.0 8.0 3.0 10.0 5.0 4.0 9.0 9.0 4.0 0.0 10.0 1.0 2.0 7.0 8.0 7.0 0.0 5.0 
6.0 5.0 5.0 5.0 0.0 0.0 7.0 9.0 5.0 4.0 9.0 0.0 3.0 6.0 9.0 10.0 1.0 4.0 2.0 7.0 4.0 2.0 10.0 8.0 4.0 8.0 8.0 4.0 9.0 2.0 8.0 4.0 9.0 2.0 2.0 4.0 10.0 0.0 3.0 5.0 4.0 0.0 8.0 1.0 8.0 0.0 6.0 10.0 4.0 2.0 5.0 10.0 5.0 6.0 5.0 0.0 2.0 10.0 0.0 0.0 6.0 10.0 0.0 4.0 7.0 0.0 0.0 2.0 2.0 0.0 2.0 5.0 0.0 10.0 -450.0 5.0 3.0 5.0 0.0 10.0 5.0 10.0 10.0 1.0 10.0 1.0 7.0 7.0 1.0 10.0 3.0 4.0 2.0 2.0 8.0 9.0 
10.0 6.0 5.0 2.0 9.0 4.0 3.0 3.0 7.0 7.0 7.0 9.0 0.0 9.0 9.0 2.0 6.0 4.0 7.0 10.0 4.0 2.0 1.0 2.0 8.0 6.0 3.0 5.0 10.0 8.0 2.0 5.0 4.0 3.0 6.0 8.0 6.0 4.0 9.0 1.0 7.0 7.0 3.0 8.0 5.0 2.0 0.0 0.0 6.0 0.0 8.0 6.0 6.0 10.0 4.0 4.0 4.0 1.0 10.0 2.0 9.0 0.0 5.0 7.0 10.0 4.0 9.0 6.0 5.0 4.0 0.0 3.0 10.0 9.0 5.0 -471.0 3.0 10.0 2.0 0.0 10.0 5.0 2.0 0.0 1.0 9.0 4.0 0.0 2.0 1.0 2.0 10.0 0.0 2.0 6.0 7.0 
6.0 6.0 3.0 0.0 2.0 3.0 6.0 1.0 9.0 10.0 9.0 4.0 2.0 10.0 0.0 4.0 5.0 5.0 8.0 7.0 7.0 1.0 5.0 1.0 8.0 10.0 10.0 9.0 4.0 9.0 6.0 7.0 2.0 3.0 8.0 10.0 7.0 8.0 1.0 10.0 10.0 2.0 3.0 6.0 3.0 4.0 3.0 1.0 6.0 7.0 1.0 1.0 0.0 5.0 10.0 8.0 0.0 2.0 0.0 4.0 9.0 3.0 6.0 0.0 5.0 9.0 1.0 6.0 5.0 5.0 10.0 8.0 7.0 7.0 3.0 3.0 -461.0 6.0 9.0 3.0 1.0 7.0 6.0 6.0 1.0 1.0 3.0 3.0 1.0 1.0 5.0 0.0 5.0 4.0 3.0 7.0 
10.0 3.0 0.0 6.0 1.0 3.0 8.0 8.0 5.0 1.0 0.0 8.0 3.0 5.0 3.0 0.0 5.0 3.0 4.0 8.0 2.0 3.0 6.0 2.0 9.0 6.0 3.0 5.0 4.0 10.0 2.0 3.0 5.0 2.0 10.0 8.0 8.0 5.0 7.0 5.0 9.0 2.0 0.0 4.0 8.0 2.0 4.0 8.0 4.0 3.0 4.0 1.0 4.0 7.0 2.0 7.0 8.0 8.0 6.0 5.0 5.0 9.0 4.0 2.0 10.0 5.0 2.0 6.0 2.0 0.0 10.0 8.0 6.0 2.0 5.0 10.0 6.0 -450.0 4.0 2.0 1.0 7.0 4.0 0.0 1.0 5.0 4.0 9.0 2.0 10.0 0.0 4.0 6.0 2.0 6.0 6.0 
2.0 2.0 10.0 2.0 0.0 3.0 7.0 5.0 2.0 3.0 0.0 2.0 9.0 2.0 5.0 2.0 0.0 4.0 4.0 9.0 4.0 10.0 6.0 8.0 3.0 3.0 6.0 3.0 8.0 1.0 2.0 4.0 5.0 4.0 10.0 3.0 7.0 0.0 3.0 8.0 10.0 2.0 4.0 0.0 8.0 9.0 8.0 10.0 2.0 5.0 1.0 2.0 9.0 8.0 2.0 1.0 3.0 5.0 5.0 9.0 1.0 6.0 4.0 9.0 0.0 2.0 5.0 7.0 5.0 7.0 5.0 3.0 4.0 9.0 0.0 2.0 9.0 4.0 -440.0 9.0 9.0 0.0 9.0 0.0 5.0 9.0 3.0 8.0 2.0 4.0 0.0 9.0 5.0 4.0 2.0 6.0 
10.0 6.0 7.0 4.0 0.0 5.0 4.0 0.0 10.0 10.0 5.0 9.0 6.0 8.0 0.0 8.0 2.0 1.0 8.0 5.0 7.0 3.0 7.0 2.0 8.0 8.0 5.0 6.0 5.0 7.0 7.0 0.0 10.0 6.0 4.0 2.0 4.0 1.0 4.0 7.0 6.0 7.0 0.0 4.0 10.0 6.0 6.0 10.0 0.0 4.0 8.0 5.0 2.0 2.0 7.0 6.0 7.0 4.0 3.0 9.0 2.0 2.0 9.0 10.0 3.0 9.0 8.0 0.0 9.0 3.0 0.0 7.0 2.0 8.0 10.0 0.0 3.0 2.0 9.0 -515.0 3.0 5.0 5.0 9.0 1.0 5.0 9.0 10.0 6.0 10.0 0.0 4.0 9.0 10.0 9.0 7.0 
1.0 9.0 1.0 10.0 1.0 9.0 3.0 5.0 3.0 4.0 9.0 5.0 0.0 9.0 10.0 4.0 1.0 0.0 9.0 10.0 9.0 6.0 0.0 9.0 3.0 3.0 0.0 10.0 1.0 9.0 2.0 2.0 0.0 4.0 1.0 1.0 6.0 2.0 5.0 2.0 8.0 6.0 8.0 2.0 1.0 7.0 5.0 0.0 10.0 9.0 10.0 5.0 4.0 8.0 5.0 9.0 5.0 8.0 0.0 0.0 4.0 4.0 8.0 0.0 3.0 9.0 9.0 3.0 5.0 3.0 7.0 4.0 7.0 3.0 5.0 10.0 1.0 1.0 9.0 3.0 -458.0 7.0 3.0 0.0 9.0 2.0 4.0 10.0 10.0 6.0 0.0 6.0 4.0 3.0 2.0 6.0 
2.0 10.0 1.0 6.0 9.0 10.0 7.0 7.0 2.0 3.0 3.0 2.0 0.0 6.0 4.0 0.0 2.0 6.0 9.0 8.0 6.0 4.0 3.0 6.0 10.0 7.0 7.0 9.0 6.0 5.0 6.0 3.0 4.0 3.0 3.0 8.0 4.0 2.0 2.0 2.0 1.0 3.0 2.0 8.0 6.0 5.0 7.0 2.0 6.0 8.0 1.0 1.0 9.0 10.0 2.0 0.0 4.0 9.0 3.0 2.0 0.0 5.0 3.0 9.0 4.0 0.0 4.0 1.0 4.0 2.0 0.0 9.0 3.0 10.0 10.0 5.0 7.0 7.0 0.0 5.0 7.0 -444.0 9.0 5.0 2.0 3.0 0.0 3.0 8.0 10.0 8.0 6.0 3.0 1.0 0.0 5.0 
5.0 1.0 2.0 4.0 2.0 6.0 7.0 3.0 5.0 1.0 9.0 9.0 10.0 10.0 9.0 2.0 8.0 7.0 3.0 5.0 8.0 5.0 1.0 5.0 4.0 5.0 3.0 7.0 8.0 10.0 5.0 4.0 0.0 8.0 3.0 3.0 4.0 8.0 4.0 0.0 3.0 6.0 1.0 6.0 1.0 4.0 8.0 2.0 2.0 5.0 10.0 4.0 5.0 0.0 3.0 9.0 3.0 3.0 1.0 6.0 8.0 5.0 2.0 1.0 3.0 6.0 2.0 3.0 7.0 6.0 2.0 2.0 0.0 5.0 10.0 2.0 6.0 4.0 9.0 5.0 3.0 9.0 -458.0 9.0 0.0 5.0 6.0 9.0 6.0 4.0 4.0 4.0 8.0 2.0 7.0 9.0 
0.0 7.0 7.0 6.0 0.0 0.0 9.0 0.0 9.0 3.0 2.0 2.0 7.0 1.0 8.0 7.0 9.0 10.0 0.0 2.0 8.0 1.0 9.0 4.0 10.0 7.0 0.0 1.0 5.0 6.0 7.0 10.0 5.0 5.0 1.0 4.0 6.0 2.0 9.0 3.0 6.0 3.0 10.0 4.0 1.0 6.0 7.0 4.0 7.0 3.0 2.0 3.0 5.0 3.0 4.0 0.0 9.0 3.0 3.0 2.0 7.0 0.0 1.0 2.0 1.0 1.0 1.0 8.0 10.0 10.0 9.0 6.0 6.0 4.0 1.0 0.0 6.0 0.0 0.0 9.0 0.0 5.0 9.0 -426.0 5.0 0.0 8.0 3.0 9.0 10.0 6.0 0.0 0.0 0.0 2.0 10.0 
4.0 7.0 4.0 8.0 4.0 9.0 0.0 1.0 0.0 4.0 9.0 5.0 1.0 8.0 1.0 6.0 7.0 4.0 4.0 2.0 8.0 3.0 7.0 0.0 6.0 5.0 5.0 9.0 10.0 9.0 10.0 7.0 7.0 4.0 5.0 0.0 10.0 6.0 4.0 2.0 6.0 7.0 10.0 8.0 4.0 0.0 5.0 1.0 0.0 5.0 3.0 3.0 0.0 6.0 3.0 10.0 5.0 2.0 9.0 8.0 5.0 7.0 7.0 3.0 7.0 9.0 3.0 2.0 1.0 0.0 8.0 10.0 2.0 9.0 10.0 1.0 1.0 1.0 5.0 1.0 9.0 2.0 0.0 5.0 -453.0 4.0 10.0 4.0 0.0 8.0 4.0 2.0 7.0 1.0 3.0 2.0 
4.0 0.0 10.0 7.0 8.0 6.0 10.0 4.0 0.0 1.0 2.0 4.0 3.0 4.0 7.0 5.0 8.0 6.0 5.0 8.0 5.0 3.0 2.0 4.0 4.0 2.0 1.0 4.0 2.0 9.0 9.0 7.0 3.0 6.0 2.0 7.0 1.0 10.0 0.0 5.0 6.0 0.0 4.0 9.0 2.0 5.0 6.0 8.0 1.0 1.0 9.0 8.0 9.0 2.0 8.0 9.0 4.0 5.0 10.0 6.0 7.0 1.0 0.0 10.0 3.0 5.0 2.0 1.0 7.0 5.0 4.0 5.0 3.0 9.0 1.0 9.0 1.0 5.0 9.0 5.0 2.0 3.0 5.0 0.0 4.0 -468.0 1.0 5.0 7.0 6.0 3.0 9.0 7.0 10.0 4.0 10.0 
2.0 0.0 7.0 2.0 6.0 2.0 1.0 2.0 9.0 9.0 1.0 5.0 4.0 2.0 5.0 5.0 0.0 1.0 10.0 0.0 4.0 10.0 0.0 2.0 2.0 10.0 6.0 2.0 6.0 3.0 2.0 0.0 1.0 7.0 6.0 9.0 9.0 7.0 8.0 10.0 4.0 1.0 2.0 4.0 6.0 2.0 6.0 0.0 3.0 9.0 7.0 7.0 9.0 0.0 3.0 9.0 9.0 8.0 6.0 2.0 7.0 3.0 9.0 10.0 7.0 0.0 3.0 7.0 7.0 7.0 4.0 5.0 6.0 4.0 7.0 4.0 3.0 4.0 3.0 9.0 4.0 0.0 6.0 8.0 10.0 1.0 -439.0 5.0 3.0 2.0 1.0 1.0 4.0 0.0 3.0 8.0 
5.0 0.0 4.0 1.0 7.0 5.0 6.0 7.0 3.0 7.0 1.0 2.0 5.0 8.0 5.0 0.0 4.0 8.0 0.0 3.0 9.0 5.0 3.0 6.0 4.0 0.0 5.0 1.0 8.0 6.0 1.0 7.0 9.0 4.0 10.0 7.0 7.0 10.0 8.0 10.0 0.0 8.0 10.0 5.0 7.0 9.0 4.0 5.0 7.0 10.0 3.0 3.0 5.0 5.0 8.0 7.0 1.0 10.0 5.0 3.0 8.0 0.0 8.0 1.0 6.0 6.0 5.0 3.0 5.0 3.0 3.0 7.0 5.0 0.0 7.0 0.0 3.0 9.0 8.0 10.0 10.0 3.0 9.0 3.0 4.0 5.0 5.0 -481.0 10.0 0.0 5.0 3.0 4.0 7.0 0.0 0.0 
6.0 0.0 7.0 5.0 2.0 5.0 0.0 0.0 3.0 7.0 1.0 8.0 10.0 4.0 10.0 3.0 8.0 7.0 7.0 1.0 5.0 3.0 2.0 10.0 6.0 9.0 8.0 3.0 6.0 10.0 5.0 4.0 4.0 6.0 10.0 7.0 4.0 5.0 10.0 10.0 8.0 7.0 7.0 4.0 6.0 8.0 9.0 6.0 6.0 6.0 2.0 1.0 2.0 7.0 6.0 0.0 8.0 9.0 0.0 6.0 4.0 8.0 9.0 5.0 7.0 8.0 7.0 4.0 8.0 8.0 7.0 9.0 10.0 10.0 1.0 2.0 1.0 2.0 2.0 6.0 10.0 8.0 6.0 9.0 0.0 7.0 3.0 10.0 -546.0 7.0 4.0 9.0 4.0 3.0 9.0 10.0 
3.0 0.0 4.0 10.0 4.0 6.0 8.0 9.0 0.0 6.0 7.0 7.0 4.0 7.0 4.0 6.0 1.0 2.0 8.0 4.0 10.0 6.0 3.0 2.0 1.0 4.0 6.0 10.0 5.0 6.0 0.0 3.0 10.0 9.0 2.0 2.0 7.0 2.0 5.0 10.0 1.0 4.0 7.0 4.0 7.0 0.0 2.0 8.0 9.0 7.0 4.0 0.0 0.0 7.0 1.0 9.0 5.0 2.0 8.0 7.0 7.0 10.0 4.0 7.0 2.0 10.0 9.0 6.0 7.0 3.0 9.0 10.0 9.0 1.0 10.0 1.0 1.0 10.0 4.0 10.0 6.0 10.0 4.0 10.0 8.0 6.0 2.0 0.0 7.0 -504.0 7.0 4.0 6.0 2.0 7.0 0.0 
3.0 0.0 7.0 7.0 0.0 8.0 10.0 3.0 4.0 8.0 1.0 4.0 3.0 2.0 3.0 10.0 7.0 6.0 7.0 4.0 8.0 9.0 8.0 5.0 9.0 9.0 6.0 9.0 10.0 5.0 4.0 4.0 2.0 3.0 2.0 7.0 4.0 1.0 9.0 2.0 1.0 5.0 4.0 5.0 9.0 10.0 10.0 7.0 9.0 6.0 8.0 3.0 10.0 6.0 3.0 8.0 4.0 4.0 1.0 1.0 2.0 8.0 6.0 0.0 3.0 10.0 2.0 10.0 7.0 5.0 7.0 10.0 3.0 2.0 3.0 2.0 5.0 0.0 0.0 0.0 0.0 8.0 4.0 6.0 4.0 3.0 1.0 5.0 4.0 7.0 -466.0 4.0 0.0 6.0 2.0 0.0 
4.0 0.0 4.0 9.0 6.0 8.0 1.0 4.0 2.0 4.0 1.0 9.0 5.0 4.0 0.0 2.0 0.0 6.0 9.0 1.0 5.0 8.0 8.0 5.0 1.0 10.0 9.0 9.0 8.0 0.0 10.0 10.0 5.0 9.0 10.0 3.0 7.0 8.0 6.0 4.0 2.0 6.0 5.0 5.0 8.0 9.0 8.0 1.0 10.0 1.0 7.0 9.0 2.0 8.0 0.0 8.0 5.0 4.0 7.0 0.0 8.0 2.0 0.0 5.0 8.0 2.0 10.0 8.0 0.0 6.0 9.0 1.0 10.0 7.0 4.0 10.0 0.0 4.0 9.0 4.0 6.0 6.0 4.0 0.0 2.0 9.0 1.0 3.0 9.0 4.0 4.0 -485.0 8.0 0.0 1.0 2.0 
10.0 0.0 1.0 7.0 10.0 9.0 6.0 5.0 5.0 1.0 10.0 4.0 0.0 6.0 7.0 7.0 8.0 6.0 7.0 7.0 3.0 1.0 5.0 5.0 4.0 8.0 9.0 10.0 2.0 8.0 7.0 8.0 8.0 7.0 4.0 7.0 4.0 3.0 6.0 7.0 9.0 1.0 6.0 3.0 5.0 8.0 2.0 2.0 7.0 3.0 0.0 7.0 5.0 6.0 3.0 4.0 2.0 2.0 10.0 10.0 2.0 7.0 5.0 8.0 4.0 6.0 5.0 4.0 0.0 0.0 9.0 4.0 9.0 8.0 2.0 0.0 5.0 6.0 5.0 9.0 4.0 3.0 8.0 0.0 7.0 7.0 4.0 4.0 4.0 6.0 0.0 8.0 -505.0 9.0 7.0 9.0 
7.0 0.0 10.0 4.0 8.0 6.0 9.0 5.0 3.0 2.0 3.0 7.0 0.0 8.0 4.0 9.0 6.0 3.0 6.0 7.0 4.0 5.0 3.0 6.0 4.0 2.0 4.0 5.0 2.0 3.0 9.0 6.0 7.0 7.0 2.0 9.0 8.0 3.0 8.0 8.0 2.0 8.0 7.0 3.0 0.0 7.0 0.0 2.0 6.0 0.0 2.0 4.0 3.0 3.0 9.0 5.0 7.0 1.0 1.0 3.0 6.0 1.0 3.0 10.0 8.0 0.0 6.0 3.0 10.0 5.0 7.0 9.0 8.0 7.0 2.0 2.0 4.0 2.0 4.0 10.0 3.0 1.0 2.0 0.0 1.0 10.0 0.0 7.0 3.0 2.0 6.0 0.0 9.0 -446.0 1.0 9.0 
3.0 0.0 4.0 8.0 10.0 4.0 4.0 9.0 0.0 4.0 1.0 5.0 10.0 9.0 1.0 7.0 9.0 6.0 5.0 8.0 8.0 4.0 1.0 1.0 2.0 8.0 8.0 5.0 8.0 7.0 10.0 0.0 3.0 8.0 5.0 10.0 9.0 10.0 7.0 4.0 3.0 1.0 10.0 0.0 7.0 3.0 0.0 8.0 3.0 7.0 10.0 5.0 10.0 3.0 9.0 3.0 9.0 2.0 5.0 6.0 7.0 9.0 6.0 7.0 2.0 4.0 8.0 5.0 10.0 9.0 4.0 8.0 3.0 0.0 8.0 6.0 3.0 6.0 2.0 9.0 2.0 0.0 7.0 2.0 3.0 4.0 3.0 0.0 9.0 7.0 2.0 1.0 7.0 1.0 -497.0 4.0 
0.0 0.0 10.0 5.0 5.0 2.0 8.0 10.0 8.0 9.0 7.0 5.0 8.0 0.0 1.0 10.0 6.0 5.0 5.0 3.0 7.0 6.0 3.0 1.0 6.0 2.0 8.0 2.0 2.0 2.0 9.0 4.0 3.0 5.0 0.0 5.0 7.0 4.0 8.0 5.0 9.0 9.0 0.0 5.0 5.0 1.0 3.0 0.0 4.0 7.0 10.0 9.0 2.0 7.0 4.0 8.0 2.0 4.0 1.0 7.0 6.0 6.0 10.0 5.0 3.0 10.0 5.0 8.0 3.0 7.0 9.0 1.0 7.0 5.0 9.0 7.0 7.0 6.0 6.0 7.0 6.0 5.0 9.0 10.0 2.0 10.0 8.0 0.0 10.0 0.0 0.0 2.0 9.0 9.0 4.0 -504.0 

